%chk=ETN3_ESP.chk
%mem=10GB
#p hf/6-31g(d) pop=mk iop(6/33=2, 6/42=6) scf=tight

EtN3_ESP

0 1
 N                  6.72742702   -0.63693193    0.00005752
 N                  7.84282396   -0.40510992    0.00018260
 C                  4.50000000    0.00000000    0.00000000
 H                  4.60195731    0.64988376    0.88954541
 H                  4.60177069    0.64977611   -0.88964733
 C                  3.14630918   -0.69077525    0.00017373
 H                  3.03391445   -1.32814280   -0.89000315
 H                  3.03408614   -1.32803597    0.89044877
 N                  5.56370270   -1.01943547   -0.00006851
 H                  2.33650429    0.05487524    0.00020636
 N                  4.47742702    3.26018239    0.00005752
 N                  5.59282396    3.49200440    0.00018260
 C                  2.25000000    3.89711432    0.00000000
 H                  2.35195731    4.54699808    0.88954541
 H                  2.35177069    4.54689043   -0.88964733
 C                  0.89630918    3.20633907    0.00017373
 H                  0.78391445    2.56897152   -0.89000315
 H                  0.78408614    2.56907835    0.89044877
 N                  3.31370270    2.87767885   -0.00006851
 H                  0.08650429    3.95198956    0.00020636
 N                 -0.02257298    3.26018239    0.00005752
 N                  1.09282396    3.49200440    0.00018260
 C                 -2.25000000    3.89711432    0.00000000
 H                 -2.14804269    4.54699808    0.88954541
 H                 -2.14822931    4.54689043   -0.88964733
 C                 -3.60369082    3.20633907    0.00017373
 H                 -3.71608555    2.56897152   -0.89000315
 H                 -3.71591386    2.56907835    0.89044877
 N                 -1.18629730    2.87767885   -0.00006851
 H                 -4.41349571    3.95198956    0.00020636
 N                 -2.27257298   -0.63693193    0.00005752
 N                 -1.15717604   -0.40510992    0.00018260
 C                 -4.50000000    0.00000000    0.00000000
 H                 -4.39804269    0.64988376    0.88954541
 H                 -4.39822931    0.64977611   -0.88964733
 C                 -5.85369082   -0.69077525    0.00017373
 H                 -5.96608555   -1.32814280   -0.89000315
 H                 -5.96591386   -1.32803597    0.89044877
 N                 -3.43629730   -1.01943547   -0.00006851
 H                 -6.66349571    0.05487524    0.00020636
 N                 -0.02257298   -4.53404625    0.00005752
 N                  1.09282396   -4.30222424    0.00018260
 C                 -2.25000000   -3.89711432    0.00000000
 H                 -2.14804269   -3.24723056    0.88954541
 H                 -2.14822931   -3.24733821   -0.88964733
 C                 -3.60369082   -4.58788957    0.00017373
 H                 -3.71608555   -5.22525712   -0.89000315
 H                 -3.71591386   -5.22515029    0.89044877
 N                 -1.18629730   -4.91654979   -0.00006851
 H                 -4.41349571   -3.84223908    0.00020636
 N                  4.47742702   -4.53404625    0.00005752
 N                  5.59282396   -4.30222424    0.00018260
 C                  2.25000000   -3.89711432    0.00000000
 H                  2.35195731   -3.24723056    0.88954541
 H                  2.35177069   -3.24733821   -0.88964733
 C                  0.89630918   -4.58788957    0.00017373
 H                  0.78391445   -5.22525712   -0.89000315
 H                  0.78408614   -5.22515029    0.89044877
 N                  3.31370270   -4.91654979   -0.00006851
 H                  0.08650429   -3.84223908    0.00020636
